c generated by sgen3tocnf
c nLits = 636
c actual nVars = 101
c Command: sgen3tocnf 025 0 17 25 101 4 2 0 /dev/null
p cnf 101 212
-5 -33 -89 0
-5 -33 -97 0
-5 -89 -97 0
-33 -89 -97 0
-13 -37 -61 0
-13 -37 -73 0
-13 -61 -73 0
-37 -61 -73 0
-14 -17 -41 0
-14 -17 -90 0
-14 -41 -90 0
-17 -41 -90 0
-15 -49 -53 0
-15 -49 -98 0
-15 -53 -98 0
-49 -53 -98 0
-1 -21 -65 0
-1 -21 -69 0
-1 -65 -69 0
-21 -65 -69 0
-25 -66 -93 0
-25 -66 -99 0
-25 -93 -99 0
-66 -93 -99 0
-6 -22 -50 0
-6 -22 -62 0
-6 -50 -62 0
-22 -50 -62 0
-29 -34 -67 0
-29 -34 -74 0
-29 -67 -74 0
-34 -67 -74 0
-9 -23 -30 0
-9 -23 -38 0
-9 -30 -38 0
-23 -30 -38 0
-7 -39 -57 0
-7 -39 -94 0
-7 -57 -94 0
-39 -57 -94 0
-31 -70 -85 0
-31 -70 -91 0
-31 -85 -91 0
-70 -85 -91 0
-10 -26 -54 0
-10 -26 -92 0
-10 -54 -92 0
-26 -54 -92 0
-45 -58 -71 0
-45 -58 -75 0
-45 -71 -75 0
-58 -71 -75 0
-40 -46 -68 0
-40 -46 -77 0
-40 -68 -77 0
-46 -68 -77 0
-11 -63 -78 0
-11 -63 -81 0
-11 -78 -81 0
-63 -78 -81 0
-32 -51 -79 0
-32 -51 -95 0
-32 -79 -95 0
-51 -79 -95 0
-18 -24 -76 0
-18 -24 -80 0
-18 -76 -80 0
-24 -76 -80 0
-35 -64 -86 0
-35 -64 -96 0
-35 -86 -96 0
-64 -86 -96 0
-2 -16 -47 0
-2 -16 -82 0
-2 -47 -82 0
-16 -47 -82 0
-19 -55 -72 0
-19 -55 -83 0
-19 -72 -83 0
-55 -72 -83 0
-3 -20 -59 0
-3 -20 -100 0
-3 -59 -100 0
-20 -59 -100 0
-36 -42 -48 0
-36 -42 -56 0
-36 -48 -56 0
-42 -48 -56 0
-8 -27 -43 0
-8 -27 -84 0
-8 -43 -84 0
-27 -43 -84 0
-4 -28 -52 0
-4 -28 -87 0
-4 -52 -87 0
-28 -52 -87 0
-12 -44 -60 0
-12 -44 -88 0
-12 -44 -101 0
-12 -60 -88 0
-12 -60 -101 0
-12 -88 -101 0
-44 -60 -88 0
-44 -60 -101 0
-44 -88 -101 0
-60 -88 -101 0
1 2 3 0
1 2 4 0
1 3 4 0
2 3 4 0
5 6 7 0
5 6 8 0
5 7 8 0
6 7 8 0
9 10 11 0
9 10 12 0
9 11 12 0
10 11 12 0
13 14 15 0
13 14 16 0
13 15 16 0
14 15 16 0
17 18 19 0
17 18 20 0
17 19 20 0
18 19 20 0
21 22 23 0
21 22 24 0
21 23 24 0
22 23 24 0
25 26 27 0
25 26 28 0
25 27 28 0
26 27 28 0
29 30 31 0
29 30 32 0
29 31 32 0
30 31 32 0
33 34 35 0
33 34 36 0
33 35 36 0
34 35 36 0
37 38 39 0
37 38 40 0
37 39 40 0
38 39 40 0
41 42 43 0
41 42 44 0
41 43 44 0
42 43 44 0
45 46 47 0
45 46 48 0
45 47 48 0
46 47 48 0
49 50 51 0
49 50 52 0
49 51 52 0
50 51 52 0
53 54 55 0
53 54 56 0
53 55 56 0
54 55 56 0
57 58 59 0
57 58 60 0
57 59 60 0
58 59 60 0
61 62 63 0
61 62 64 0
61 63 64 0
62 63 64 0
65 66 67 0
65 66 68 0
65 66 101 0
65 67 68 0
65 67 101 0
65 68 101 0
66 67 68 0
66 67 101 0
66 68 101 0
67 68 101 0
69 70 71 0
69 70 72 0
69 71 72 0
70 71 72 0
73 74 75 0
73 74 76 0
73 75 76 0
74 75 76 0
77 78 79 0
77 78 80 0
77 79 80 0
78 79 80 0
81 82 83 0
81 82 84 0
81 83 84 0
82 83 84 0
85 86 87 0
85 86 88 0
85 87 88 0
86 87 88 0
89 90 91 0
89 90 92 0
89 91 92 0
90 91 92 0
93 94 95 0
93 94 96 0
93 95 96 0
94 95 96 0
97 98 99 0
97 98 100 0
97 99 100 0
98 99 100 0
